(declare-const c_0 Real)
(declare-const c_1 Real)
(declare-const c_2 Real)
(declare-const c_3 Real)
(declare-const c_4 Real)
(declare-const c_5 Real)
(declare-const c_6 Real)
(declare-const c_7 Real)
(declare-const c_8 Real)
(declare-const c_9 Real)
(declare-const c_10 Real)
(declare-const c_11 Real)
(declare-const s_0 Real)
(declare-const s_1 Real)
(declare-const s_2 Real)
(declare-const s_3 Real)
(declare-const s_4 Real)
(declare-const s_5 Real)
(declare-const s_6 Real)
(declare-const s_7 Real)
(declare-const s_8 Real)
(declare-const s_9 Real)
(declare-const s_10 Real)
(declare-const s_11 Real)
(assert (forall ((x Real) (y Real) (z Real) ) (=> (and (>= (+ (* 1024 1) (* 1 x ) ) 0) (>= (+ (* 1023 1) (* (- 1) x ) ) 0) (>= (+ (* 1024 1) (* 1 y ) ) 0) (>= (+ (* 1023 1) (* (- 1) y ) ) 0) (>= (+ (* 1024 1) (* 1 z ) ) 0) (>= (+ (* 1023 1) (* (- 1) z ) ) 0) ) (>= (+ (* 1 s_0 ) (* 1 s_1 x ) (* 1 s_2 y ) (* 1 s_3 z ) ) 0) )))
(assert (forall ((x Real) (y Real) (z Real) ) (=> (and (>= (+ (* 1024 1) (* 1 x ) ) 0) (>= (+ (* 1023 1) (* (- 1) x ) ) 0) (>= (+ (* 1024 1) (* 1 y ) ) 0) (>= (+ (* 1023 1) (* (- 1) y ) ) 0) (>= (+ (* 1024 1) (* 1 z ) ) 0) (>= (+ (* 1023 1) (* (- 1) z ) ) 0) ) (>= (+ (* 1 c_0 ) (* 1 c_1 x ) (* 1 c_2 y ) (* 1 c_3 z ) ) 0) )))
(assert (forall ((x Real) (y Real) (z Real) ) (=> (and (>= (+ (* (- 1) 1) (* 1 y ) ) 0) (>= (+ (* 1024 1) (* 1 x ) ) 0) (>= (+ (* 1024 1) (* 1 y ) ) 0) (>= (+ (* 1024 1) (* 1 z ) ) 0) (>= (+ (* 1023 1) (* (- 1) z ) ) 0) (>= (+ (* 1023 1) (* (- 1) y ) ) 0) (>= (+ (* 1023 1) (* (- 1) x ) ) 0) (>= (+ (* 1 s_0 ) (* 1 s_1 x ) (* 1 s_2 y ) (* 1 s_3 z ) ) 0) ) (>= (+ (* 1 s_4 ) (* 1 s_5 x ) (* 1 s_6 y ) (* 1 s_7 z ) ) 0) )))
(assert (forall ((x Real) (y Real) (z Real) ) (=> (and (>= (+ (* (- 1) 1) (* 1 y ) ) 0) (>= (+ (* 1024 1) (* 1 x ) ) 0) (>= (+ (* 1024 1) (* 1 y ) ) 0) (>= (+ (* 1024 1) (* 1 z ) ) 0) (>= (+ (* 1023 1) (* (- 1) z ) ) 0) (>= (+ (* 1023 1) (* (- 1) y ) ) 0) (>= (+ (* 1023 1) (* (- 1) x ) ) 0) (>= (+ (* 1 s_0 ) (* 1 s_1 x ) (* 1 s_2 y ) (* 1 s_3 z ) ) 0) ) (>= (+ (* 1 c_4 ) (* 1 c_5 x ) (* 1 c_6 y ) (* 1 c_7 z ) ) 0) )))
(assert (forall ((x Real) (y Real) (z Real) ) (=> (and (>= (+ (* (- 1) 1) (* 1 y ) ) 0) (>= (+ (* 1024 1) (* 1 x ) ) 0) (>= (+ (* 1024 1) (* 1 y ) ) 0) (>= (+ (* 1024 1) (* 1 z ) ) 0) (>= (+ (* 1023 1) (* (- 1) z ) ) 0) (>= (+ (* 1023 1) (* (- 1) y ) ) 0) (>= (+ (* 1023 1) (* (- 1) x ) ) 0) (>= (+ (* 1 s_0 ) (* 1 s_1 x ) (* 1 s_2 y ) (* 1 s_3 z ) ) 0) ) (>= (+ (* (- 1) 1) (* 1 c_0 ) (* 1 c_1 x ) (* 1 c_2 y ) (* 1 c_3 z ) (* (- 1) c_4 ) (* (- 1) c_5 x ) (* (- 1) c_6 y ) (* (- 1) c_7 z ) ) 0) )))
(assert (forall ((x Real) (y Real) (z Real) ) (=> (and (>= (* (- 1) y ) 0) (>= (+ (* 1024 1) (* 1 x ) ) 0) (>= (+ (* 1024 1) (* 1 y ) ) 0) (>= (+ (* 1024 1) (* 1 z ) ) 0) (>= (+ (* 1023 1) (* (- 1) z ) ) 0) (>= (+ (* 1023 1) (* (- 1) y ) ) 0) (>= (+ (* 1023 1) (* (- 1) x ) ) 0) (>= (+ (* 1 s_0 ) (* 1 s_1 x ) (* 1 s_2 y ) (* 1 s_3 z ) ) 0) ) (>= (+ (* 1 s_10 y ) (* 1 s_11 z ) (* 1 s_8 ) (* 1 s_9 x ) ) 0) )))
(assert (forall ((x Real) (y Real) (z Real) ) (=> (and (>= (* (- 1) y ) 0) (>= (+ (* 1024 1) (* 1 x ) ) 0) (>= (+ (* 1024 1) (* 1 y ) ) 0) (>= (+ (* 1024 1) (* 1 z ) ) 0) (>= (+ (* 1023 1) (* (- 1) z ) ) 0) (>= (+ (* 1023 1) (* (- 1) y ) ) 0) (>= (+ (* 1023 1) (* (- 1) x ) ) 0) (>= (+ (* 1 s_0 ) (* 1 s_1 x ) (* 1 s_2 y ) (* 1 s_3 z ) ) 0) ) (>= (+ (* 1 c_10 y ) (* 1 c_11 z ) (* 1 c_8 ) (* 1 c_9 x ) ) 0) )))
(assert (forall ((x Real) (y Real) (z Real) ) (=> (and (>= (+ (* 1 x ) (* (- 1) z ) ) 0) (>= (+ (* 3141633 1) (* 1023 x ) (* (- 2047) z ) ) 0) (>= (+ (* 2093058 1) (* 1 x ) (* 2047 y ) (* (- 2047) z ) ) 0) (>= (+ (* 1024 1) (* 1 x ) ) 0) (>= (+ (* (- 1) 1) (* 1 y ) ) 0) (>= (+ (* 1024 1) (* 1 z ) ) 0) (>= (+ (* 1023 1) (* (- 1) y ) ) 0) (>= (+ (* 1023 1) (* (- 1) x ) ) 0) (>= (+ (* 1 s_4 ) (* 1 s_5 x ) (* 1 s_6 y ) (* 1 s_7 z ) ) 0) ) (>= (+ (* 1 s_4 ) (* 1 s_5 x ) (* 1 s_6 y ) (* 1 s_7 y ) (* 1 s_7 z ) ) 0) )))
(assert (forall ((x Real) (y Real) (z Real) ) (=> (and (>= (+ (* 1 x ) (* (- 1) z ) ) 0) (>= (+ (* 3141633 1) (* 1023 x ) (* (- 2047) z ) ) 0) (>= (+ (* 2093058 1) (* 1 x ) (* 2047 y ) (* (- 2047) z ) ) 0) (>= (+ (* 1024 1) (* 1 x ) ) 0) (>= (+ (* (- 1) 1) (* 1 y ) ) 0) (>= (+ (* 1024 1) (* 1 z ) ) 0) (>= (+ (* 1023 1) (* (- 1) y ) ) 0) (>= (+ (* 1023 1) (* (- 1) x ) ) 0) (>= (+ (* 1 s_4 ) (* 1 s_5 x ) (* 1 s_6 y ) (* 1 s_7 z ) ) 0) ) (>= (+ (* 1 c_4 ) (* 1 c_5 x ) (* 1 c_6 y ) (* 1 c_7 y ) (* 1 c_7 z ) ) 0) )))
(assert (forall ((x Real) (y Real) (z Real) ) (=> (and (>= (+ (* 1 x ) (* (- 1) z ) ) 0) (>= (+ (* 3141633 1) (* 1023 x ) (* (- 2047) z ) ) 0) (>= (+ (* 2093058 1) (* 1 x ) (* 2047 y ) (* (- 2047) z ) ) 0) (>= (+ (* 1024 1) (* 1 x ) ) 0) (>= (+ (* (- 1) 1) (* 1 y ) ) 0) (>= (+ (* 1024 1) (* 1 z ) ) 0) (>= (+ (* 1023 1) (* (- 1) y ) ) 0) (>= (+ (* 1023 1) (* (- 1) x ) ) 0) (>= (+ (* 1 s_4 ) (* 1 s_5 x ) (* 1 s_6 y ) (* 1 s_7 z ) ) 0) ) (>= (+ (* (- 1) 1) (* (- 1) c_7 y ) ) 0) )))
(assert (forall ((x Real) (y Real) (z Real) ) (=> (and (>= (+ (* (- 1) 1) (* (- 1) x ) (* 1 z ) ) 0) (>= (+ (* 3141633 1) (* 1023 x ) (* (- 2047) z ) ) 0) (>= (+ (* 2093058 1) (* 1 x ) (* 2047 y ) (* (- 2047) z ) ) 0) (>= (+ (* 1024 1) (* 1 x ) ) 0) (>= (+ (* (- 1) 1) (* 1 y ) ) 0) (>= (+ (* 1024 1) (* 1 z ) ) 0) (>= (+ (* 1023 1) (* (- 1) y ) ) 0) (>= (+ (* 1023 1) (* (- 1) x ) ) 0) (>= (+ (* 1 s_4 ) (* 1 s_5 x ) (* 1 s_6 y ) (* 1 s_7 z ) ) 0) ) (>= (+ (* 1 s_10 y ) (* 1 s_11 z ) (* 1 s_8 ) (* 1 s_9 x ) ) 0) )))
(assert (forall ((x Real) (y Real) (z Real) ) (=> (and (>= (+ (* (- 1) 1) (* (- 1) x ) (* 1 z ) ) 0) (>= (+ (* 3141633 1) (* 1023 x ) (* (- 2047) z ) ) 0) (>= (+ (* 2093058 1) (* 1 x ) (* 2047 y ) (* (- 2047) z ) ) 0) (>= (+ (* 1024 1) (* 1 x ) ) 0) (>= (+ (* (- 1) 1) (* 1 y ) ) 0) (>= (+ (* 1024 1) (* 1 z ) ) 0) (>= (+ (* 1023 1) (* (- 1) y ) ) 0) (>= (+ (* 1023 1) (* (- 1) x ) ) 0) (>= (+ (* 1 s_4 ) (* 1 s_5 x ) (* 1 s_6 y ) (* 1 s_7 z ) ) 0) ) (>= (+ (* 1 c_10 y ) (* 1 c_11 z ) (* 1 c_8 ) (* 1 c_9 x ) ) 0) )))

(check-sat)
(get-model)
